NAME: ETSP
COMMENT: Generated by write_TSPLIB (R package TSP)
TYPE: TSP
DIMENSION: 140
EDGE_WEIGHT_TYPE: EUC_2D
NODE_COORD_SECTION
1 2.500000e+02 -2.819000e+03
2 7.500000e+02 -4.844000e+03
3 1.250000e+03 -6.204000e+03
4 1.750000e+03 -7.281000e+03
5 2.250000e+03 -8.187000e+03
6 2.750000e+03 -8.975000e+03
7 3.250000e+03 -9.673000e+03
8 3.750000e+03 -1.030000e+04
9 4.250000e+03 -1.086800e+04
10 4.750000e+03 -1.138600e+04
11 5.250000e+03 -1.138600e+04
12 5.750000e+03 -1.086800e+04
13 6.250000e+03 -1.030000e+04
14 6.750000e+03 -9.673000e+03
15 7.250000e+03 -8.975000e+03
16 7.750000e+03 -8.187000e+03
17 8.250000e+03 -7.281000e+03
18 8.750000e+03 -6.204000e+03
19 9.250000e+03 -4.844000e+03
20 9.750000e+03 -2.819000e+03
21 2.500000e+02 -2.211000e+03
22 7.500000e+02 -3.779000e+03
23 1.250000e+03 -4.815000e+03
24 1.750000e+03 -5.620000e+03
25 2.250000e+03 -6.283000e+03
26 2.750000e+03 -6.847000e+03
27 3.250000e+03 -7.333000e+03
28 3.750000e+03 -7.757000e+03
29 4.250000e+03 -8.128000e+03
30 4.750000e+03 -8.454000e+03
31 5.250000e+03 -8.454000e+03
32 5.750000e+03 -8.128000e+03
33 6.250000e+03 -7.757000e+03
34 6.750000e+03 -7.333000e+03
35 7.250000e+03 -6.847000e+03
36 7.750000e+03 -6.283000e+03
37 8.250000e+03 -5.620000e+03
38 8.750000e+03 -4.815000e+03
39 9.250000e+03 -3.779000e+03
40 9.750000e+03 -2.211000e+03
41 2.500000e+02 -1.746000e+03
42 7.500000e+02 -2.962000e+03
43 1.250000e+03 -3.741000e+03
44 1.750000e+03 -4.327000e+03
45 2.250000e+03 -4.790000e+03
46 2.750000e+03 -5.165000e+03
47 3.250000e+03 -5.468000e+03
48 3.750000e+03 -5.711000e+03
49 4.250000e+03 -5.903000e+03
50 4.750000e+03 -6.047000e+03
51 5.250000e+03 -6.047000e+03
52 5.750000e+03 -5.903000e+03
53 6.250000e+03 -5.711000e+03
54 6.750000e+03 -5.468000e+03
55 7.250000e+03 -5.165000e+03
56 7.750000e+03 -4.790000e+03
57 8.250000e+03 -4.327000e+03
58 8.750000e+03 -3.741000e+03
59 9.250000e+03 -2.962000e+03
60 9.750000e+03 -1.746000e+03
61 0.000000e+00 0.000000e+00
62 7.500000e+02 0.000000e+00
63 1.250000e+03 0.000000e+00
64 1.750000e+03 0.000000e+00
65 2.250000e+03 0.000000e+00
66 2.750000e+03 0.000000e+00
67 3.250000e+03 0.000000e+00
68 3.750000e+03 0.000000e+00
69 4.250000e+03 0.000000e+00
70 4.750000e+03 0.000000e+00
71 5.250000e+03 0.000000e+00
72 5.750000e+03 0.000000e+00
73 6.250000e+03 0.000000e+00
74 6.750000e+03 0.000000e+00
75 7.250000e+03 0.000000e+00
76 7.750000e+03 0.000000e+00
77 8.250000e+03 0.000000e+00
78 8.750000e+03 0.000000e+00
79 9.250000e+03 0.000000e+00
80 9.750000e+03 0.000000e+00
81 2.500000e+02 1.746000e+03
82 7.500000e+02 2.962000e+03
83 1.250000e+03 3.741000e+03
84 1.750000e+03 4.327000e+03
85 2.250000e+03 4.790000e+03
86 2.750000e+03 5.165000e+03
87 3.250000e+03 5.468000e+03
88 3.750000e+03 5.711000e+03
89 4.250000e+03 5.903000e+03
90 4.750000e+03 6.047000e+03
91 5.250000e+03 6.047000e+03
92 5.750000e+03 5.903000e+03
93 6.250000e+03 5.711000e+03
94 6.750000e+03 5.468000e+03
95 7.250000e+03 5.165000e+03
96 7.750000e+03 4.790000e+03
97 8.250000e+03 4.327000e+03
98 8.750000e+03 3.741000e+03
99 9.250000e+03 2.962000e+03
100 9.750000e+03 1.746000e+03
101 2.500000e+02 2.211000e+03
102 7.500000e+02 3.779000e+03
103 1.250000e+03 4.815000e+03
104 1.750000e+03 5.620000e+03
105 2.250000e+03 6.283000e+03
106 2.750000e+03 6.847000e+03
107 3.250000e+03 7.333000e+03
108 3.750000e+03 7.757000e+03
109 4.250000e+03 8.128000e+03
110 4.750000e+03 8.454000e+03
111 5.250000e+03 8.454000e+03
112 5.750000e+03 8.128000e+03
113 6.250000e+03 7.757000e+03
114 6.750000e+03 7.333000e+03
115 7.250000e+03 6.847000e+03
116 7.750000e+03 6.283000e+03
117 8.250000e+03 5.620000e+03
118 8.750000e+03 4.815000e+03
119 9.250000e+03 3.779000e+03
120 9.750000e+03 2.211000e+03
121 2.500000e+02 2.819000e+03
122 7.500000e+02 4.844000e+03
123 1.250000e+03 6.204000e+03
124 1.750000e+03 7.281000e+03
125 2.250000e+03 8.187000e+03
126 2.750000e+03 8.975000e+03
127 3.250000e+03 9.673000e+03
128 3.750000e+03 1.030000e+04
129 4.250000e+03 1.086800e+04
130 4.750000e+03 1.138600e+04
131 5.250000e+03 1.138600e+04
132 5.750000e+03 1.086800e+04
133 6.250000e+03 1.030000e+04
134 6.750000e+03 9.673000e+03
135 7.250000e+03 8.975000e+03
136 7.750000e+03 8.187000e+03
137 8.250000e+03 7.281000e+03
138 8.750000e+03 6.204000e+03
139 9.250000e+03 4.844000e+03
140 9.750000e+03 2.819000e+03
EOF
